Set parameter TokenServer to value "hpc-licenses.hpcc.usc.edu"
Set parameter TimeLimit to value 3600
Gurobi Optimizer version 9.5.1 build v9.5.1rc2 (linux64)
Thread count: 20 physical cores, 20 logical processors, using up to 20 threads
Optimize a model with 14014 rows, 10581 columns and 61098 nonzeros
Model fingerprint: 0x8162dca6
Variable types: 10514 continuous, 67 integer (67 binary)
Coefficient statistics:
  Matrix range     [1e+00, 1e+00]
  Objective range  [2e-03, 1e+00]
  Bounds range     [1e+00, 1e+00]
  RHS range        [1e+00, 1e+00]
Presolve removed 3086 rows and 3065 columns
Presolve time: 0.16s
Presolved: 10928 rows, 7516 columns, 56261 nonzeros
Variable types: 7456 continuous, 60 integer (60 binary)
Found heuristic solution: objective 280.3937023

Root relaxation: objective 2.914313e+02, 3574 iterations, 0.14 seconds (0.17 work units)

    Nodes    |    Current Node    |     Objective Bounds      |     Work
 Expl Unexpl |  Obj  Depth IntInf | Incumbent    BestBd   Gap | It/Node Time

     0     0  291.43135    0    6  280.39370  291.43135  3.94%     -    0s
H    0     0                     282.1974028  291.43135  3.27%     -    0s
H    0     0                     284.1348268  291.43135  2.57%     -    0s
     0     0  291.42681    0   12  284.13483  291.42681  2.57%     -    0s
     0     0  291.42681    0   12  284.13483  291.42681  2.57%     -    0s
H    0     0                     284.3111364  291.42477  2.50%     -    0s
     0     0  291.42185    0   17  284.31114  291.42185  2.50%     -    0s
     0     0  291.42163    0   16  284.31114  291.42163  2.50%     -    0s
     0     0  291.41887    0   21  284.31114  291.41887  2.50%     -    1s
     0     0  291.41885    0   18  284.31114  291.41885  2.50%     -    1s
     0     0  291.41329    0   18  284.31114  291.41329  2.50%     -    1s
     0     0  291.41188    0   17  284.31114  291.41188  2.50%     -    1s
H    0     0                     288.4436069  291.39878  1.02%     -    1s
     0     0  291.39878    0   21  288.44361  291.39878  1.02%     -    1s
     0     0  291.38079    0   17  288.44361  291.38079  1.02%     -    1s
     0     0  291.35310    0   14  288.44361  291.35310  1.01%     -    1s
     0     0  291.33558    0   14  288.44361  291.33558  1.00%     -    1s
H    0     0                     288.7172849  291.33558  0.91%     -    1s
     0     0  291.33284    0   14  288.71728  291.33284  0.91%     -    1s
     0     0  291.33284    0   15  288.71728  291.33284  0.91%     -    1s
     0     0  291.31320    0   13  288.71728  291.31320  0.90%     -    2s
     0     0  291.30567    0   13  288.71728  291.30567  0.90%     -    2s
     0     0  291.20034    0   10  288.71728  291.20034  0.86%     -    2s
     0     0  291.20034    0   11  288.71728  291.20034  0.86%     -    2s
     0     0  291.18098    0   10  288.71728  291.18098  0.85%     -    2s
     0     0  291.18098    0   10  288.71728  291.18098  0.85%     -    2s
     0     2  291.18098    0   10  288.71728  291.18098  0.85%     -    3s
    37    16  291.18098    7   17  288.71728  291.18098  0.85%   522    5s
H   85    30                     288.7527680  291.18098  0.84%   343    6s
H   90    30                     288.9636038  291.18098  0.77%   353    6s
   538    22     cutoff   25       288.96360  290.71866  0.61%   155   11s
H  552    22                     289.0064424  290.71673  0.59%   154   11s

Cutting planes:
  Gomory: 4
  MIR: 69
  Flow cover: 15
  RLT: 24
  Relax-and-lift: 12

Explored 717 nodes (103660 simplex iterations) in 14.11 seconds (5.88 work units)
Thread count was 20 (of 20 available processors)

Solution count 9: 289.006 288.964 288.753 ... 280.394

Optimal solution found (tolerance 1.00e-04)
Best objective 2.890064424016e+02, best bound 2.890064424016e+02, gap 0.0000%



#########node  1
V2.5
#########node  2
V1.7
#########node  3
V1.4
#########node  4
0.0,1.0
#########node  5
1.0,0.0
#########node  6
0.0,1.0
#########node  7
1.0,0.0


Total Solving Time 14.879802942276001
obj value 289.00644240164064
Policy Regret train (Sum) 0.9423449851751906
Best Treatment Found train (%) 88.2
treatment classification acc train (%) 21.0
Policy Regret test (Sum) 24.53770683664241
Best Treatment Found test (%) 85.07000000000001
treatment classification acc test (%) 21.7
Set parameter TokenServer to value "hpc-licenses.hpcc.usc.edu"
Set parameter TimeLimit to value 3600
Gurobi Optimizer version 9.5.1 build v9.5.1rc2 (linux64)
Thread count: 20 physical cores, 20 logical processors, using up to 20 threads
Optimize a model with 14014 rows, 10581 columns and 61098 nonzeros
Model fingerprint: 0x8162dca6
Variable types: 10514 continuous, 67 integer (67 binary)
Coefficient statistics:
  Matrix range     [1e+00, 1e+00]
  Objective range  [2e-03, 1e+00]
  Bounds range     [1e+00, 1e+00]
  RHS range        [1e+00, 1e+00]
Presolve removed 3086 rows and 3065 columns
Presolve time: 0.20s
Presolved: 10928 rows, 7516 columns, 56261 nonzeros
Variable types: 7456 continuous, 60 integer (60 binary)
Found heuristic solution: objective 280.3937023

Root relaxation: objective 2.914313e+02, 3574 iterations, 0.17 seconds (0.17 work units)

    Nodes    |    Current Node    |     Objective Bounds      |     Work
 Expl Unexpl |  Obj  Depth IntInf | Incumbent    BestBd   Gap | It/Node Time

     0     0  291.43135    0    6  280.39370  291.43135  3.94%     -    0s
H    0     0                     282.1974028  291.43135  3.27%     -    0s
H    0     0                     284.1348268  291.43135  2.57%     -    0s
     0     0  291.42681    0   12  284.13483  291.42681  2.57%     -    0s
     0     0  291.42681    0   12  284.13483  291.42681  2.57%     -    0s
H    0     0                     284.3111364  291.42477  2.50%     -    0s
     0     0  291.42185    0   17  284.31114  291.42185  2.50%     -    0s
     0     0  291.42163    0   16  284.31114  291.42163  2.50%     -    0s
     0     0  291.41887    0   21  284.31114  291.41887  2.50%     -    1s
     0     0  291.41885    0   18  284.31114  291.41885  2.50%     -    1s
     0     0  291.41329    0   18  284.31114  291.41329  2.50%     -    1s
     0     0  291.41188    0   17  284.31114  291.41188  2.50%     -    1s
H    0     0                     288.4436069  291.39878  1.02%     -    1s
     0     0  291.39878    0   21  288.44361  291.39878  1.02%     -    1s
     0     0  291.38079    0   17  288.44361  291.38079  1.02%     -    1s
     0     0  291.35310    0   14  288.44361  291.35310  1.01%     -    1s
     0     0  291.33558    0   14  288.44361  291.33558  1.00%     -    1s
H    0     0                     288.7172849  291.33558  0.91%     -    2s
     0     0  291.33284    0   14  288.71728  291.33284  0.91%     -    2s
     0     0  291.33284    0   15  288.71728  291.33284  0.91%     -    2s
     0     0  291.31320    0   13  288.71728  291.31320  0.90%     -    2s
     0     0  291.30567    0   13  288.71728  291.30567  0.90%     -    2s
     0     0  291.20034    0   10  288.71728  291.20034  0.86%     -    2s
     0     0  291.20034    0   11  288.71728  291.20034  0.86%     -    2s
     0     0  291.18098    0   10  288.71728  291.18098  0.85%     -    2s
     0     0  291.18098    0   10  288.71728  291.18098  0.85%     -    3s
     0     2  291.18098    0   10  288.71728  291.18098  0.85%     -    3s
     7     6  291.18098    3   13  288.71728  291.18098  0.85%   666    5s
H   85    30                     288.7527680  291.18098  0.84%   343    9s
H   90    30                     288.9636038  291.18098  0.77%   353    9s
   136    40  290.89403   13   15  288.96360  290.97733  0.70%   278   10s
   538    22     cutoff   25       288.96360  290.71866  0.61%   155   16s
H  552    22                     289.0064424  290.71673  0.59%   154   16s

Cutting planes:
  Gomory: 4
  MIR: 69
  Flow cover: 15
  RLT: 24
  Relax-and-lift: 12

Explored 717 nodes (103660 simplex iterations) in 18.32 seconds (5.88 work units)
Thread count was 20 (of 20 available processors)

Solution count 9: 289.006 288.964 288.753 ... 280.394

Optimal solution found (tolerance 1.00e-04)
Best objective 2.890064424016e+02, best bound 2.890064424016e+02, gap 0.0000%



#########node  1
V2.5
#########node  2
V1.7
#########node  3
V1.4
#########node  4
0.0,1.0
#########node  5
1.0,0.0
#########node  6
0.0,1.0
#########node  7
1.0,0.0


Total Solving Time 19.22327446937561
obj value 289.00644240164064
Policy Regret train (Sum) 0.9423449851751906
Best Treatment Found train (%) 88.2
treatment classification acc train (%) 21.0
Policy Regret test (Sum) 24.53770683664241
Best Treatment Found test (%) 85.07000000000001
treatment classification acc test (%) 21.7
